NAME: random-2-308
TYPE: TSP
COMMENT: size=2 seed=308
DIMENSION: 6
EDGE_WEIGHT_TYPE: EUC_2D
NODE_COORD_SECTION
+0 556 812
-0 556 812
+1 332 427
-1 494 201
+2 61 683
-2 174 947
PRECEDENCE_SECTION
+0 -0
+1 -1
+2 -2
EOF
